1307348
92, 67, 79, 4, 23, 15, 17, 80, 48, 21, 53, 100, 102, 104, 97, 91, 11, 89, 49, 10, 64, 22, 58, 54, 99, 87, 19, 62, 73, 76, 18, 50, 88, 7, 65, 42, 60, 106, 33, 108, 78, 55, 12, 36, 8, 28, 40, 68, 13, 96, 93, 105, 71, 47, 39, 14, 70, 69, 86, 27, 57, 75, 72, 31, 41, 38, 26, 37, 9, 77, 66, 24, 109, 90, 45, 82, 5, 1, 35, 98, 101, 34, 52, 29, 107, 81, 2, 51, 84, 59, 46, 94, 16, 25, 3, 83, 63, 20, 44, 85, 43, 61, 32, 95, 6, 30, 103, 56, 74
